NAME          COPTPROB
OBJSENSE
  MIN
ROWS
 N  __OBJ___
 L  C1      
 L  C3      
 L  C4      
 L  C5      
 L  C6      
 L  C7      
 L  C8      
 L  C11     
 L  C14     
 L  C16     
 L  C17     
 L  C20     
 L  C22     
 L  C24     
 L  C25     
 L  C26     
 L  C30     
 L  C33     
 L  C35     
 L  C36     
 L  C41     
 L  C43     
 L  C44     
 L  C45     
 L  C49     
 L  C50     
 L  C51     
 L  C52     
 L  C54     
 L  C56     
 L  C57     
 L  C59     
 L  C60     
 L  C61     
 L  C66     
 L  C67     
 L  C68     
 L  C70     
 L  C72     
 L  C74     
 L  C76     
 L  C77     
 L  C78     
 L  C81     
 L  C85     
 L  C86     
 L  C87     
 L  C90     
 L  C91     
 L  C94     
 L  C95     
 L  C96     
 L  C99     
 L  C101    
 L  C102    
 L  C103    
 L  C104    
 L  C107    
 L  C108    
 L  C109    
 L  C110    
 L  C112    
 L  C113    
 L  C115    
 L  C118    
 L  C119    
 L  C120    
 L  C121    
 L  C122    
 L  C128    
 L  C129    
 L  C132    
 L  C133    
 L  C135    
 L  C136    
 L  C138    
 L  C140    
 L  C141    
 L  C143    
 L  C144    
 L  C145    
 L  C146    
 L  C147    
 L  C148    
 L  C150    
 L  C151    
 L  C153    
 L  C155    
 L  C156    
 L  C157    
 L  C158    
 L  C161    
 L  C162    
 L  C163    
 L  C164    
 L  C166    
 L  C167    
 L  C168    
 L  C170    
 L  C173    
 L  C175    
 L  C176    
 L  C178    
 L  C180    
 L  C181    
 L  C182    
 L  C186    
 L  C189    
 L  C190    
 L  C191    
 L  C192    
 L  C193    
 L  C194    
 L  C195    
 L  C196    
 L  C197    
 L  C198    
 L  C199    
 L  C200    
 L  C201    
 L  C202    
 L  C203    
 L  C204    
 L  C206    
 L  C210    
 L  C215    
 L  C216    
 L  C217    
 L  C221    
 L  C222    
 L  C224    
 L  C226    
 L  C227    
 L  C234    
 L  C238    
 L  C239    
 L  C240    
 L  C243    
 L  C244    
 L  C246    
 L  C252    
 L  C253    
 L  C254    
 L  C256    
 L  C257    
 L  C261    
 L  C263    
 L  C269    
 L  C270    
 L  C272    
 L  C273    
 L  C274    
 L  C276    
 L  C277    
 L  C278    
 L  C279    
 L  C280    
 L  C281    
 L  C283    
 L  C284    
 L  C285    
 L  C286    
 L  C290    
 L  C291    
 L  C292    
 L  C296    
 L  C299    
 L  C300    
 L  C304    
 L  C306    
 L  C307    
 L  C308    
 L  C309    
 L  C311    
 L  C316    
 L  C319    
 L  C320    
 L  C321    
 L  C322    
 L  C324    
 L  C327    
 L  C331    
 L  C334    
 L  C335    
 L  C340    
 L  C341    
 L  C343    
 L  C346    
 L  C347    
 L  C348    
 L  C351    
 L  C355    
 L  C356    
 L  C357    
 L  C358    
 L  C359    
 L  C364    
 L  C365    
 L  C366    
 L  C368    
 L  C369    
 L  C370    
 L  C372    
 L  C373    
 L  C374    
 L  C376    
 L  C379    
 L  C381    
 L  C383    
 L  C385    
 L  C388    
 L  C390    
 L  C391    
 L  C397    
 L  C399    
COLUMNS
    MARKER    'MARKER'                 'INTORG'
    x3        __OBJ___  357
    x3        C118      -1
    x3        C299      -1
    x3        C383      -1
    x6        __OBJ___  214
    x6        C1        -1
    x6        C22       -1
    x6        C103      -1
    x6        C281      -1
    x8        __OBJ___  84
    x8        C95       -1
    x8        C162      -1
    x8        C290      -1
    x8        C320      -1
    x11       __OBJ___  124
    x11       C153      -1
    x11       C224      -1
    x11       C322      -1
    x15       __OBJ___  812
    x15       C6        -1
    x15       C104      -1
    x15       C120      -1
    x15       C376      -1
    x16       __OBJ___  760
    x16       C35       -1
    x16       C59       -1
    x16       C285      -1
    x18       __OBJ___  769
    x18       C136      -1
    x18       C151      -1
    x18       C215      -1
    x18       C243      -1
    x20       __OBJ___  839
    x20       C99       -1
    x20       C143      -1
    x20       C150      -1
    x20       C306      -1
    x22       __OBJ___  216
    x22       C85       -1
    x22       C252      -1
    x22       C273      -1
    x22       C284      -1
    x25       __OBJ___  314
    x25       C135      -1
    x25       C324      -1
    x25       C356      -1
    x25       C359      -1
    x28       __OBJ___  579
    x28       C17       -1
    x28       C57       -1
    x28       C61       -1
    x28       C277      -1
    x30       __OBJ___  125
    x30       C74       -1
    x30       C193      -1
    x30       C334      -1
    x34       __OBJ___  907
    x34       C44       -1
    x34       C54       -1
    x34       C115      -1
    x34       C239      -1
    x34       C316      -1
    x34       C341      -1
    x34       C388      -1
    x35       __OBJ___  785
    x35       C30       -1
    x35       C70       -1
    x35       C113      -1
    x35       C178      -1
    x37       __OBJ___  345
    x37       C14       -1
    x37       C109      -1
    x37       C166      -1
    x37       C355      -1
    x37       C374      -1
    x46       __OBJ___  407
    x46       C26       -1
    x46       C112      -1
    x46       C141      -1
    x46       C304      -1
    x46       C340      -1
    x47       __OBJ___  31
    x47       C20       -1
    x47       C321      -1
    x49       __OBJ___  642
    x49       C156      -1
    x49       C168      -1
    x49       C397      -1
    x50       __OBJ___  872
    x50       C5        -1
    x50       C119      -1
    x50       C147      -1
    x50       C234      -1
    x50       C257      -1
    x50       C335      -1
    x51       __OBJ___  775
    x51       C122      -1
    x51       C309      -1
    x51       C391      -1
    x56       __OBJ___  256
    x56       C90       -1
    x56       C155      -1
    x56       C176      -1
    x56       C194      -1
    x57       __OBJ___  320
    x57       C138      -1
    x57       C161      -1
    x60       __OBJ___  872
    x60       C60       -1
    x60       C144      -1
    x60       C195      -1
    x60       C261      -1
    x60       C343      -1
    x61       __OBJ___  566
    x61       C197      -1
    x61       C254      -1
    x62       __OBJ___  380
    x62       C146      -1
    x62       C158      -1
    x62       C198      -1
    x63       __OBJ___  840
    x63       C36       -1
    x63       C274      -1
    x63       C278      -1
    x64       __OBJ___  754
    x64       C49       -1
    x64       C110      -1
    x64       C272      -1
    x64       C358      -1
    x64       C372      -1
    x65       __OBJ___  19
    x65       C101      -1
    x65       C217      -1
    x65       C253      -1
    x66       __OBJ___  583
    x66       C94       -1
    x66       C399      -1
    x67       __OBJ___  797
    x67       C16       -1
    x67       C182      -1
    x67       C365      -1
    x69       __OBJ___  707
    x69       C33       -1
    x69       C41       -1
    x69       C192      -1
    x69       C379      -1
    x69       C381      -1
    x70       __OBJ___  324
    x70       C132      -1
    x70       C148      -1
    x70       C203      -1
    x70       C206      -1
    x70       C351      -1
    x71       __OBJ___  957
    x71       C3        -1
    x71       C163      -1
    x71       C238      -1
    x71       C369      -1
    x72       __OBJ___  479
    x72       C200      -1
    x72       C202      -1
    x72       C244      -1
    x73       __OBJ___  429
    x73       C170      -1
    x73       C175      -1
    x73       C180      -1
    x73       C390      -1
    x74       __OBJ___  323
    x74       C8        -1
    x74       C121      -1
    x74       C311      -1
    x74       C368      -1
    x74       C370      -1
    x75       __OBJ___  680
    x75       C77       -1
    x75       C86       -1
    x75       C140      -1
    x75       C270      -1
    x75       C327      -1
    x78       __OBJ___  585
    x78       C51       -1
    x78       C52       -1
    x78       C96       -1
    x78       C129      -1
    x78       C173      -1
    x78       C240      -1
    x78       C269      -1
    x80       __OBJ___  810
    x80       C133      -1
    x80       C164      -1
    x80       C227      -1
    x80       C246      -1
    x80       C366      -1
    x81       __OBJ___  741
    x81       C11       -1
    x81       C87       -1
    x81       C102      -1
    x81       C190      -1
    x81       C276      -1
    x81       C346      -1
    x82       __OBJ___  681
    x82       C24       -1
    x82       C300      -1
    x82       C364      -1
    x83       __OBJ___  842
    x83       C78       -1
    x83       C107      -1
    x83       C280      -1
    x83       C286      -1
    x84       __OBJ___  130
    x84       C25       -1
    x84       C68       -1
    x84       C91       -1
    x84       C157      -1
    x87       __OBJ___  416
    x87       C76       -1
    x87       C263      -1
    x87       C279      -1
    x88       __OBJ___  357
    x88       C56       -1
    x88       C145      -1
    x88       C199      -1
    x88       C291      -1
    x88       C296      -1
    x88       C308      -1
    x90       __OBJ___  645
    x90       C43       -1
    x90       C66       -1
    x90       C72       -1
    x91       __OBJ___  695
    x91       C67       -1
    x91       C181      -1
    x91       C204      -1
    x92       __OBJ___  233
    x92       C189      -1
    x92       C348      -1
    x92       C357      -1
    x93       __OBJ___  517
    x93       C4        -1
    x93       C108      -1
    x93       C201      -1
    x93       C307      -1
    x97       __OBJ___  149
    x97       C109      -1
    x97       C197      -1
    x99       __OBJ___  59
    x99       C246      -1
    x99       C399      -1
    x100      __OBJ___  265
    x100      C175      -1
    x100      C358      -1
    x100      C390      -1
    x101      __OBJ___  919
    x101      C36       -1
    x101      C136      -1
    x101      C145      -1
    x101      C217      -1
    x101      C348      -1
    x103      __OBJ___  241
    x103      C8        -1
    x103      C104      -1
    x103      C304      -1
    x103      C351      -1
    x106      __OBJ___  491
    x106      C72       -1
    x106      C168      -1
    x107      __OBJ___  421
    x107      C226      -1
    x107      C311      -1
    x107      C334      -1
    x108      __OBJ___  428
    x108      C146      -1
    x108      C206      -1
    x108      C256      -1
    x113      __OBJ___  707
    x113      C115      -1
    x113      C163      -1
    x113      C364      -1
    x114      __OBJ___  563
    x114      C136      -1
    x114      C274      -1
    x114      C306      -1
    x115      __OBJ___  894
    x115      C72       -1
    x115      C238      -1
    x115      C364      -1
    x116      __OBJ___  139
    x116      C182      -1
    x116      C200      -1
    x118      __OBJ___  141
    x118      C95       -1
    x118      C200      -1
    x118      C280      -1
    x119      __OBJ___  548
    x119      C44       -1
    x119      C67       -1
    x119      C307      -1
    x122      __OBJ___  911
    x122      C50       -1
    x122      C81       -1
    x122      C136      -1
    x122      C304      -1
    x124      __OBJ___  192
    x124      C41       -1
    x124      C54       -1
    x124      C148      -1
    x124      C203      -1
    x124      C374      -1
    x128      __OBJ___  49
    x128      C189      -1
    x130      __OBJ___  175
    x130      C68       -1
    x130      C239      -1
    x131      __OBJ___  712
    x131      C14       -1
    x131      C122      -1
    x131      C158      -1
    x133      __OBJ___  285
    x133      C355      -1
    x134      __OBJ___  154
    x134      C206      -1
    x134      C252      -1
    x134      C261      -1
    x134      C341      -1
    x134      C374      -1
    x136      __OBJ___  901
    x136      C54       -1
    x136      C243      -1
    x136      C364      -1
    x138      __OBJ___  144
    x138      C96       -1
    x138      C140      -1
    x138      C167      -1
    x140      __OBJ___  411
    x140      C136      -1
    x140      C198      -1
    x143      __OBJ___  182
    x143      C155      -1
    x143      C374      -1
    x144      __OBJ___  145
    x144      C77       -1
    x144      C81       -1
    x144      C388      -1
    x146      __OBJ___  318
    x146      C191      -1
    x146      C215      -1
    x146      C327      -1
    x147      __OBJ___  656
    x147      C168      -1
    x147      C253      -1
    x147      C324      -1
    x147      C370      -1
    x149      __OBJ___  774
    x149      C30       -1
    x149      C78       -1
    x149      C306      -1
    x150      __OBJ___  691
    x150      C5        -1
    x150      C52       -1
    x150      C99       -1
    x150      C138      -1
    x151      __OBJ___  451
    x151      C120      -1
    x151      C135      -1
    x151      C196      -1
    x151      C279      -1
    x151      C296      -1
    x153      __OBJ___  418
    x153      C196      -1
    x153      C270      -1
    x158      __OBJ___  72
    x158      C60       -1
    x158      C121      -1
    x158      C335      -1
    x160      __OBJ___  92
    x160      C76       -1
    x160      C221      -1
    x160      C273      -1
    x160      C347      -1
    x168      __OBJ___  122
    x168      C76       -1
    x168      C189      -1
    x170      __OBJ___  513
    x170      C11       -1
    x170      C238      -1
    x170      C343      -1
    x172      __OBJ___  124
    x172      C7        -1
    x172      C224      -1
    x173      __OBJ___  421
    x173      C3        -1
    x173      C16       -1
    x173      C170      -1
    x173      C215      -1
    x176      __OBJ___  299
    x176      C166      -1
    x176      C246      -1
    x176      C300      -1
    x179      __OBJ___  240
    x179      C90       -1
    x179      C283      -1
    x181      __OBJ___  600
    x181      C36       -1
    x181      C222      -1
    x181      C348      -1
    x185      __OBJ___  144
    x185      C99       -1
    x185      C201      -1
    x185      C272      -1
    x185      C292      -1
    x185      C368      -1
    x187      __OBJ___  482
    x187      C103      -1
    x187      C186      -1
    x187      C244      -1
    x187      C373      -1
    x188      __OBJ___  253
    x188      C43       -1
    x188      C292      -1
    x188      C359      -1
    x189      __OBJ___  573
    x189      C41       -1
    x189      C299      -1
    x189      C381      -1
    x191      __OBJ___  13
    x191      C276      -1
    x191      C358      -1
    x191      C385      -1
    x192      __OBJ___  53
    x192      C373      -1
    x194      __OBJ___  574
    x194      C72       -1
    x194      C190      -1
    x196      __OBJ___  625
    x196      C102      -1
    x196      C136      -1
    x196      C226      -1
    x197      __OBJ___  747
    x197      C186      -1
    x197      C252      -1
    x197      C263      -1
    x197      C359      -1
    x197      C373      -1
    x199      __OBJ___  47
    x199      C26       -1
    x199      C143      -1
    x199      C147      -1
    x199      C280      -1
    x200      __OBJ___  677
    x200      C20       -1
    x200      C176      -1
    x200      C254      -1
    x200      C372      -1
    x202      __OBJ___  80
    x202      C138      -1
    x202      C155      -1
    x202      C304      -1
    x203      __OBJ___  357
    x203      C16       -1
    x203      C146      -1
    x204      __OBJ___  142
    x204      C30       -1
    x204      C366      -1
    x205      __OBJ___  311
    x205      C14       -1
    x205      C112      -1
    x205      C162      -1
    x207      __OBJ___  111
    x207      C104      -1
    x209      __OBJ___  759
    x209      C11       -1
    x209      C182      -1
    x209      C210      -1
    x209      C254      -1
    x211      __OBJ___  491
    x211      C4        -1
    x211      C50       -1
    x211      C115      -1
    x212      __OBJ___  344
    x212      C186      -1
    x212      C319      -1
    x213      __OBJ___  46
    x213      C128      -1
    x213      C141      -1
    x213      C256      -1
    x213      C346      -1
    x216      __OBJ___  638
    x216      C103      -1
    x216      C110      -1
    x216      C129      -1
    x216      C156      -1
    x216      C358      -1
    x217      __OBJ___  497
    x217      C138      -1
    x217      C141      -1
    x217      C341      -1
    x217      C381      -1
    x218      __OBJ___  668
    x218      C113      -1
    x218      C356      -1
    x219      __OBJ___  306
    x219      C370      -1
    x220      __OBJ___  508
    x220      C226      -1
    x220      C244      -1
    x220      C285      -1
    x220      C331      -1
    x221      __OBJ___  907
    x221      C81       -1
    x221      C195      -1
    x224      __OBJ___  391
    x224      C110      -1
    x224      C240      -1
    x224      C281      -1
    x224      C381      -1
    x225      __OBJ___  402
    x225      C119      -1
    x225      C379      -1
    x226      __OBJ___  623
    x226      C86       -1
    x226      C90       -1
    x226      C222      -1
    x229      __OBJ___  356
    x229      C77       -1
    x229      C284      -1
    x230      __OBJ___  264
    x230      C143      -1
    x230      C173      -1
    x230      C226      -1
    x232      __OBJ___  501
    x232      C1        -1
    x232      C122      -1
    x234      __OBJ___  308
    x234      C181      -1
    x234      C210      -1
    x237      __OBJ___  584
    x237      C16       -1
    x237      C122      -1
    x239      __OBJ___  150
    x239      C108      -1
    x239      C128      -1
    x239      C175      -1
    x239      C291      -1
    x241      __OBJ___  275
    x241      C132      -1
    x241      C151      -1
    x241      C331      -1
    x242      __OBJ___  401
    x242      C7        -1
    x242      C191      -1
    x242      C369      -1
    x248      __OBJ___  477
    x248      C182      -1
    x248      C276      -1
    x248      C376      -1
    x249      __OBJ___  695
    x249      C7        -1
    x249      C72       -1
    x249      C163      -1
    x251      __OBJ___  474
    x251      C5        -1
    x251      C54       -1
    x251      C66       -1
    x251      C189      -1
    x251      C222      -1
    x254      __OBJ___  599
    x254      C238      -1
    x254      C357      -1
    x254      C372      -1
    x255      __OBJ___  197
    x255      C14       -1
    x255      C206      -1
    x257      __OBJ___  171
    x257      C221      -1
    x257      C322      -1
    x257      C369      -1
    x259      __OBJ___  739
    x259      C94       -1
    x259      C109      -1
    x259      C327      -1
    x261      __OBJ___  546
    x261      C133      -1
    x261      C168      -1
    x261      C192      -1
    x261      C221      -1
    x261      C270      -1
    x262      __OBJ___  517
    x262      C164      -1
    x262      C197      -1
    x262      C370      -1
    x263      __OBJ___  565
    x263      C3        -1
    x263      C155      -1
    x263      C374      -1
    x264      __OBJ___  159
    x264      C25       -1
    x264      C153      -1
    x264      C186      -1
    x264      C346      -1
    x265      __OBJ___  41
    x265      C200      -1
    x266      __OBJ___  33
    x266      C11       -1
    x266      C22       -1
    x266      C280      -1
    x267      __OBJ___  34
    x267      C203      -1
    x267      C343      -1
    x269      __OBJ___  203
    x269      C110      -1
    x269      C133      -1
    x269      C197      -1
    x271      __OBJ___  160
    x271      C24       -1
    x271      C59       -1
    x271      C167      -1
    x271      C198      -1
    x271      C217      -1
    x271      C272      -1
    x272      __OBJ___  251
    x272      C291      -1
    x272      C324      -1
    x272      C346      -1
    x277      __OBJ___  316
    x277      C133      -1
    x277      C227      -1
    x278      __OBJ___  662
    x278      C6        -1
    x278      C148      -1
    x279      __OBJ___  145
    x279      C30       -1
    x279      C278      -1
    x279      C308      -1
    x279      C324      -1
    x282      __OBJ___  543
    x282      C20       -1
    x282      C24       -1
    x282      C44       -1
    x282      C299      -1
    x282      C385      -1
    x283      __OBJ___  61
    x283      C52       -1
    x283      C57       -1
    x283      C196      -1
    x283      C210      -1
    x286      __OBJ___  183
    x286      C120      -1
    x286      C227      -1
    x286      C256      -1
    x286      C291      -1
    x286      C340      -1
    x287      __OBJ___  378
    x287      C25       -1
    x287      C99       -1
    x287      C120      -1
    x287      C292      -1
    x290      __OBJ___  758
    x290      C49       -1
    x290      C254      -1
    x290      C316      -1
    x291      __OBJ___  623
    x291      C45       -1
    x291      C244      -1
    x291      C319      -1
    x292      __OBJ___  393
    x292      C76       -1
    x292      C300      -1
    x292      C372      -1
    x293      __OBJ___  899
    x293      C269      -1
    x293      C286      -1
    x293      C357      -1
    x294      __OBJ___  1000
    x294      C36       -1
    x294      C244      -1
    x294      C283      -1
    x296      __OBJ___  449
    x296      C56       -1
    x296      C144      -1
    x296      C240      -1
    x296      C246      -1
    x297      __OBJ___  202
    x297      C68       -1
    x297      C74       -1
    x297      C224      -1
    x297      C356      -1
    x298      __OBJ___  316
    x298      C372      -1
    x298      C381      -1
    x299      __OBJ___  958
    x299      C16       -1
    x299      C180      -1
    x299      C252      -1
    x299      C399      -1
    x304      __OBJ___  366
    x304      C112      -1
    x304      C192      -1
    x307      __OBJ___  391
    x307      C8        -1
    x307      C145      -1
    x310      __OBJ___  891
    x310      C108      -1
    x310      C190      -1
    x310      C306      -1
    x312      __OBJ___  286
    x312      C107      -1
    x312      C143      -1
    x312      C155      -1
    x312      C397      -1
    x315      __OBJ___  943
    x315      C35       -1
    x315      C316      -1
    x315      C343      -1
    x315      C355      -1
    x316      __OBJ___  160
    x316      C280      -1
    x316      C351      -1
    x316      C390      -1
    x320      __OBJ___  917
    x320      C108      -1
    x320      C151      -1
    x320      C158      -1
    x320      C239      -1
    x320      C320      -1
    x324      __OBJ___  240
    x324      C77       -1
    x324      C120      -1
    x324      C309      -1
    x325      __OBJ___  479
    x325      C35       -1
    x325      C141      -1
    x327      __OBJ___  395
    x327      C178      -1
    x329      __OBJ___  12
    x329      C17       -1
    x329      C143      -1
    x329      C170      -1
    x329      C283      -1
    x329      C334      -1
    x331      __OBJ___  31
    x331      C109      -1
    x331      C221      -1
    x331      C234      -1
    x331      C280      -1
    x333      __OBJ___  115
    x333      C269      -1
    x336      __OBJ___  403
    x336      C8        -1
    x336      C274      -1
    x336      C351      -1
    x337      __OBJ___  586
    x337      C110      -1
    x337      C118      -1
    x337      C285      -1
    x337      C369      -1
    x341      __OBJ___  210
    x341      C61       -1
    x342      __OBJ___  52
    x342      C202      -1
    x342      C204      -1
    x342      C216      -1
    x342      C222      -1
    x342      C385      -1
    x343      __OBJ___  150
    x343      C14       -1
    x343      C24       -1
    x343      C76       -1
    x344      __OBJ___  6
    x344      C103      -1
    x344      C107      -1
    x344      C217      -1
    x347      __OBJ___  6
    x347      C51       -1
    x347      C141      -1
    x348      __OBJ___  962
    x348      C132      -1
    x348      C145      -1
    x348      C151      -1
    x348      C254      -1
    x348      C388      -1
    x350      __OBJ___  751
    x350      C138      -1
    x350      C156      -1
    x350      C390      -1
    x353      __OBJ___  159
    x353      C81       -1
    x353      C91       -1
    x353      C194      -1
    x354      __OBJ___  454
    x354      C61       -1
    x354      C178      -1
    x354      C210      -1
    x357      __OBJ___  107
    x357      C45       -1
    x357      C144      -1
    x357      C216      -1
    x357      C359      -1
    x359      __OBJ___  526
    x359      C101      -1
    x359      C203      -1
    x359      C285      -1
    x359      C334      -1
    x359      C359      -1
    x359      C391      -1
    x361      __OBJ___  139
    x361      C7        -1
    x361      C87       -1
    x361      C357      -1
    x362      __OBJ___  613
    x362      C33       -1
    x362      C95       -1
    x362      C115      -1
    x362      C181      -1
    x362      C216      -1
    x362      C238      -1
    x363      __OBJ___  597
    x363      C54       -1
    x363      C81       -1
    x363      C191      -1
    x363      C277      -1
    x364      __OBJ___  861
    x364      C96       -1
    x364      C153      -1
    x364      C257      -1
    x364      C308      -1
    x365      __OBJ___  66
    x365      C68       -1
    x365      C321      -1
    x368      __OBJ___  193
    x368      C77       -1
    x368      C78       -1
    x368      C193      -1
    x368      C279      -1
    x370      __OBJ___  812
    x370      C1        -1
    x370      C180      -1
    x370      C274      -1
    x372      __OBJ___  104
    x372      C192      -1
    x372      C256      -1
    x374      __OBJ___  811
    x374      C112      -1
    x374      C178      -1
    x374      C299      -1
    x375      __OBJ___  937
    x375      C150      -1
    x375      C206      -1
    x380      __OBJ___  771
    x380      C7        -1
    x380      C119      -1
    x380      C132      -1
    x380      C290      -1
    x380      C324      -1
    x381      __OBJ___  382
    x381      C44       -1
    x381      C192      -1
    x381      C383      -1
    x383      __OBJ___  404
    x383      C157      -1
    x383      C365      -1
    x383      C390      -1
    x388      __OBJ___  813
    x388      C113      -1
    x388      C136      -1
    x388      C199      -1
    x388      C206      -1
    x389      __OBJ___  761
    x389      C33       -1
    x389      C70       -1
    x390      __OBJ___  344
    x390      C85       -1
    x390      C132      -1
    x390      C263      -1
    x392      __OBJ___  847
    x392      C51       -1
    x392      C120      -1
    x392      C129      -1
    x392      C356      -1
    x393      __OBJ___  557
    x393      C163      -1
    x393      C216      -1
    x393      C270      -1
    x400      __OBJ___  472
    x400      C4        -1
    x400      C96       -1
    x400      C161      -1
    x400      C347      -1
    MARKER    'MARKER'                 'INTEND'
RHS
    RHS       __OBJ___  -17145
    RHS       C1        -1
    RHS       C3        -1
    RHS       C4        -1
    RHS       C5        -1
    RHS       C6        -1
    RHS       C7        -1
    RHS       C8        -1
    RHS       C11       -1
    RHS       C14       -1
    RHS       C16       -1
    RHS       C17       -1
    RHS       C20       -1
    RHS       C22       -1
    RHS       C24       -1
    RHS       C25       -1
    RHS       C26       -1
    RHS       C30       -1
    RHS       C33       -1
    RHS       C35       -1
    RHS       C36       -1
    RHS       C41       -1
    RHS       C43       -1
    RHS       C44       -1
    RHS       C45       -1
    RHS       C49       -1
    RHS       C50       -1
    RHS       C51       -1
    RHS       C52       -1
    RHS       C54       -1
    RHS       C56       -1
    RHS       C57       -1
    RHS       C59       -1
    RHS       C60       -1
    RHS       C61       -1
    RHS       C66       -1
    RHS       C67       -1
    RHS       C68       -1
    RHS       C70       -1
    RHS       C72       -1
    RHS       C74       -1
    RHS       C76       -1
    RHS       C77       -1
    RHS       C78       -1
    RHS       C81       -1
    RHS       C85       -1
    RHS       C86       -1
    RHS       C87       -1
    RHS       C90       -1
    RHS       C91       -1
    RHS       C94       -1
    RHS       C95       -1
    RHS       C96       -1
    RHS       C99       -1
    RHS       C101      -1
    RHS       C102      -1
    RHS       C103      -1
    RHS       C104      -1
    RHS       C107      -1
    RHS       C108      -1
    RHS       C109      -1
    RHS       C110      -1
    RHS       C112      -1
    RHS       C113      -1
    RHS       C115      -1
    RHS       C118      -1
    RHS       C119      -1
    RHS       C120      -1
    RHS       C121      -1
    RHS       C122      -1
    RHS       C128      -1
    RHS       C129      -1
    RHS       C132      -1
    RHS       C133      -1
    RHS       C135      -1
    RHS       C136      -1
    RHS       C138      -1
    RHS       C140      -1
    RHS       C141      -1
    RHS       C143      -1
    RHS       C144      -1
    RHS       C145      -1
    RHS       C146      -1
    RHS       C147      -1
    RHS       C148      -1
    RHS       C150      -1
    RHS       C151      -1
    RHS       C153      -1
    RHS       C155      -1
    RHS       C156      -1
    RHS       C157      -1
    RHS       C158      -1
    RHS       C161      -1
    RHS       C162      -1
    RHS       C163      -1
    RHS       C164      -1
    RHS       C166      -1
    RHS       C167      -1
    RHS       C168      -1
    RHS       C170      -1
    RHS       C173      -1
    RHS       C175      -1
    RHS       C176      -1
    RHS       C178      -1
    RHS       C180      -1
    RHS       C181      -1
    RHS       C182      -1
    RHS       C186      -1
    RHS       C189      -1
    RHS       C190      -1
    RHS       C191      -1
    RHS       C192      -1
    RHS       C193      -1
    RHS       C194      -1
    RHS       C195      -1
    RHS       C196      -1
    RHS       C197      -1
    RHS       C198      -1
    RHS       C199      -1
    RHS       C200      -1
    RHS       C201      -1
    RHS       C202      -1
    RHS       C203      -1
    RHS       C204      -1
    RHS       C206      -1
    RHS       C210      -1
    RHS       C215      -1
    RHS       C216      -1
    RHS       C217      -1
    RHS       C221      -1
    RHS       C222      -1
    RHS       C224      -1
    RHS       C226      -1
    RHS       C227      -1
    RHS       C234      -1
    RHS       C238      -1
    RHS       C239      -1
    RHS       C240      -1
    RHS       C243      -1
    RHS       C244      -1
    RHS       C246      -1
    RHS       C252      -1
    RHS       C253      -1
    RHS       C254      -1
    RHS       C256      -1
    RHS       C257      -1
    RHS       C261      -1
    RHS       C263      -1
    RHS       C269      -1
    RHS       C270      -1
    RHS       C272      -1
    RHS       C273      -1
    RHS       C274      -1
    RHS       C276      -1
    RHS       C277      -1
    RHS       C278      -1
    RHS       C279      -1
    RHS       C280      -1
    RHS       C281      -1
    RHS       C283      -1
    RHS       C284      -1
    RHS       C285      -1
    RHS       C286      -1
    RHS       C290      -1
    RHS       C291      -1
    RHS       C292      -1
    RHS       C296      -1
    RHS       C299      -1
    RHS       C300      -1
    RHS       C304      -1
    RHS       C306      -1
    RHS       C307      -1
    RHS       C308      -1
    RHS       C309      -1
    RHS       C311      -1
    RHS       C316      -1
    RHS       C319      -1
    RHS       C320      -1
    RHS       C321      -1
    RHS       C322      -1
    RHS       C324      -1
    RHS       C327      -1
    RHS       C331      -1
    RHS       C334      -1
    RHS       C335      -1
    RHS       C340      -1
    RHS       C341      -1
    RHS       C343      -1
    RHS       C346      -1
    RHS       C347      -1
    RHS       C348      -1
    RHS       C351      -1
    RHS       C355      -1
    RHS       C356      -1
    RHS       C357      -1
    RHS       C358      -1
    RHS       C359      -1
    RHS       C364      -1
    RHS       C365      -1
    RHS       C366      -1
    RHS       C368      -1
    RHS       C369      -1
    RHS       C370      -1
    RHS       C372      -1
    RHS       C373      -1
    RHS       C374      -1
    RHS       C376      -1
    RHS       C379      -1
    RHS       C381      -1
    RHS       C383      -1
    RHS       C385      -1
    RHS       C388      -1
    RHS       C390      -1
    RHS       C391      -1
    RHS       C397      -1
    RHS       C399      -1
BOUNDS
 UP BOUND     x3        1
 UP BOUND     x6        1
 UP BOUND     x8        1
 UP BOUND     x11       1
 UP BOUND     x15       1
 UP BOUND     x16       1
 UP BOUND     x18       1
 UP BOUND     x20       1
 UP BOUND     x22       1
 UP BOUND     x25       1
 UP BOUND     x28       1
 UP BOUND     x30       1
 UP BOUND     x34       1
 UP BOUND     x35       1
 UP BOUND     x37       1
 UP BOUND     x46       1
 UP BOUND     x47       1
 UP BOUND     x49       1
 UP BOUND     x50       1
 UP BOUND     x51       1
 UP BOUND     x56       1
 UP BOUND     x57       1
 UP BOUND     x60       1
 UP BOUND     x61       1
 UP BOUND     x62       1
 UP BOUND     x63       1
 UP BOUND     x64       1
 UP BOUND     x65       1
 UP BOUND     x66       1
 UP BOUND     x67       1
 UP BOUND     x69       1
 UP BOUND     x70       1
 UP BOUND     x71       1
 UP BOUND     x72       1
 UP BOUND     x73       1
 UP BOUND     x74       1
 UP BOUND     x75       1
 UP BOUND     x78       1
 UP BOUND     x80       1
 UP BOUND     x81       1
 UP BOUND     x82       1
 UP BOUND     x83       1
 UP BOUND     x84       1
 UP BOUND     x87       1
 UP BOUND     x88       1
 UP BOUND     x90       1
 UP BOUND     x91       1
 UP BOUND     x92       1
 UP BOUND     x93       1
 UP BOUND     x97       1
 UP BOUND     x99       1
 UP BOUND     x100      1
 UP BOUND     x101      1
 UP BOUND     x103      1
 UP BOUND     x106      1
 UP BOUND     x107      1
 UP BOUND     x108      1
 UP BOUND     x113      1
 UP BOUND     x114      1
 UP BOUND     x115      1
 UP BOUND     x116      1
 UP BOUND     x118      1
 UP BOUND     x119      1
 UP BOUND     x122      1
 UP BOUND     x124      1
 UP BOUND     x128      1
 UP BOUND     x130      1
 UP BOUND     x131      1
 UP BOUND     x133      1
 UP BOUND     x134      1
 UP BOUND     x136      1
 UP BOUND     x138      1
 UP BOUND     x140      1
 UP BOUND     x143      1
 UP BOUND     x144      1
 UP BOUND     x146      1
 UP BOUND     x147      1
 UP BOUND     x149      1
 UP BOUND     x150      1
 UP BOUND     x151      1
 UP BOUND     x153      1
 UP BOUND     x158      1
 UP BOUND     x160      1
 UP BOUND     x168      1
 UP BOUND     x170      1
 UP BOUND     x172      1
 UP BOUND     x173      1
 UP BOUND     x176      1
 UP BOUND     x179      1
 UP BOUND     x181      1
 UP BOUND     x185      1
 UP BOUND     x187      1
 UP BOUND     x188      1
 UP BOUND     x189      1
 UP BOUND     x191      1
 UP BOUND     x192      1
 UP BOUND     x194      1
 UP BOUND     x196      1
 UP BOUND     x197      1
 UP BOUND     x199      1
 UP BOUND     x200      1
 UP BOUND     x202      1
 UP BOUND     x203      1
 UP BOUND     x204      1
 UP BOUND     x205      1
 UP BOUND     x207      1
 UP BOUND     x209      1
 UP BOUND     x211      1
 UP BOUND     x212      1
 UP BOUND     x213      1
 UP BOUND     x216      1
 UP BOUND     x217      1
 UP BOUND     x218      1
 UP BOUND     x219      1
 UP BOUND     x220      1
 UP BOUND     x221      1
 UP BOUND     x224      1
 UP BOUND     x225      1
 UP BOUND     x226      1
 UP BOUND     x229      1
 UP BOUND     x230      1
 UP BOUND     x232      1
 UP BOUND     x234      1
 UP BOUND     x237      1
 UP BOUND     x239      1
 UP BOUND     x241      1
 UP BOUND     x242      1
 UP BOUND     x248      1
 UP BOUND     x249      1
 UP BOUND     x251      1
 UP BOUND     x254      1
 UP BOUND     x255      1
 UP BOUND     x257      1
 UP BOUND     x259      1
 UP BOUND     x261      1
 UP BOUND     x262      1
 UP BOUND     x263      1
 UP BOUND     x264      1
 UP BOUND     x265      1
 UP BOUND     x266      1
 UP BOUND     x267      1
 UP BOUND     x269      1
 UP BOUND     x271      1
 UP BOUND     x272      1
 UP BOUND     x277      1
 UP BOUND     x278      1
 UP BOUND     x279      1
 UP BOUND     x282      1
 UP BOUND     x283      1
 UP BOUND     x286      1
 UP BOUND     x287      1
 UP BOUND     x290      1
 UP BOUND     x291      1
 UP BOUND     x292      1
 UP BOUND     x293      1
 UP BOUND     x294      1
 UP BOUND     x296      1
 UP BOUND     x297      1
 UP BOUND     x298      1
 UP BOUND     x299      1
 UP BOUND     x304      1
 UP BOUND     x307      1
 UP BOUND     x310      1
 UP BOUND     x312      1
 UP BOUND     x315      1
 UP BOUND     x316      1
 UP BOUND     x320      1
 UP BOUND     x324      1
 UP BOUND     x325      1
 UP BOUND     x327      1
 UP BOUND     x329      1
 UP BOUND     x331      1
 UP BOUND     x333      1
 UP BOUND     x336      1
 UP BOUND     x337      1
 UP BOUND     x341      1
 UP BOUND     x342      1
 UP BOUND     x343      1
 UP BOUND     x344      1
 UP BOUND     x347      1
 UP BOUND     x348      1
 UP BOUND     x350      1
 UP BOUND     x353      1
 UP BOUND     x354      1
 UP BOUND     x357      1
 UP BOUND     x359      1
 UP BOUND     x361      1
 UP BOUND     x362      1
 UP BOUND     x363      1
 UP BOUND     x364      1
 UP BOUND     x365      1
 UP BOUND     x368      1
 UP BOUND     x370      1
 UP BOUND     x372      1
 UP BOUND     x374      1
 UP BOUND     x375      1
 UP BOUND     x380      1
 UP BOUND     x381      1
 UP BOUND     x383      1
 UP BOUND     x388      1
 UP BOUND     x389      1
 UP BOUND     x390      1
 UP BOUND     x392      1
 UP BOUND     x393      1
 UP BOUND     x400      1
ENDATA
